p cnf 432 1930
1 2 0
-1 -2 0
49 50 0
-49 -50 0
97 98 0
-97 -98 0
145 146 0
-145 -146 0
193 194 0
-193 -194 0
241 242 0
-241 -242 0
289 290 0
-289 -290 0
337 338 0
-337 -338 0
385 386 0
-385 -386 0
3 4 0
-3 -4 0
51 52 0
-51 -52 0
99 100 0
-99 -100 0
147 148 0
-147 -148 0
195 196 0
-195 -196 0
243 244 0
-243 -244 0
291 292 0
-291 -292 0
339 340 0
-339 -340 0
387 388 0
-387 -388 0
5 6 0
-5 -6 0
53 54 0
-53 -54 0
101 102 0
-101 -102 0
149 150 0
-149 -150 0
197 198 0
-197 -198 0
245 246 0
-245 -246 0
293 294 0
-293 -294 0
341 342 0
-341 -342 0
389 390 0
-389 -390 0
7 8 0
-7 -8 0
55 56 0
-55 -56 0
103 104 0
-103 -104 0
151 152 0
-151 -152 0
199 200 0
-199 -200 0
247 248 0
-247 -248 0
295 296 0
-295 -296 0
343 344 0
-343 -344 0
391 392 0
-391 -392 0
9 10 0
-9 -10 0
57 58 0
-57 -58 0
105 106 0
-105 -106 0
153 154 0
-153 -154 0
201 202 0
-201 -202 0
249 250 0
-249 -250 0
297 298 0
-297 -298 0
345 346 0
-345 -346 0
393 394 0
-393 -394 0
11 12 0
-11 -12 0
59 60 0
-59 -60 0
107 108 0
-107 -108 0
155 156 0
-155 -156 0
203 204 0
-203 -204 0
251 252 0
-251 -252 0
299 300 0
-299 -300 0
347 348 0
-347 -348 0
395 396 0
-395 -396 0
13 14 0
-13 -14 0
61 62 0
-61 -62 0
109 110 0
-109 -110 0
157 158 0
-157 -158 0
205 206 0
-205 -206 0
253 254 0
-253 -254 0
301 302 0
-301 -302 0
349 350 0
-349 -350 0
397 398 0
-397 -398 0
15 16 0
-15 -16 0
63 64 0
-63 -64 0
111 112 0
-111 -112 0
159 160 0
-159 -160 0
207 208 0
-207 -208 0
255 256 0
-255 -256 0
303 304 0
-303 -304 0
351 352 0
-351 -352 0
399 400 0
-399 -400 0
17 18 0
-17 -18 0
65 66 0
-65 -66 0
113 114 0
-113 -114 0
161 162 0
-161 -162 0
209 210 0
-209 -210 0
257 258 0
-257 -258 0
305 306 0
-305 -306 0
353 354 0
-353 -354 0
401 402 0
-401 -402 0
19 20 0
-19 -20 0
67 68 0
-67 -68 0
115 116 0
-115 -116 0
163 164 0
-163 -164 0
211 212 0
-211 -212 0
259 260 0
-259 -260 0
307 308 0
-307 -308 0
355 356 0
-355 -356 0
403 404 0
-403 -404 0
21 22 0
-21 -22 0
69 70 0
-69 -70 0
117 118 0
-117 -118 0
165 166 0
-165 -166 0
213 214 0
-213 -214 0
261 262 0
-261 -262 0
309 310 0
-309 -310 0
357 358 0
-357 -358 0
405 406 0
-405 -406 0
23 24 0
-23 -24 0
71 72 0
-71 -72 0
119 120 0
-119 -120 0
167 168 0
-167 -168 0
215 216 0
-215 -216 0
263 264 0
-263 -264 0
311 312 0
-311 -312 0
359 360 0
-359 -360 0
407 408 0
-407 -408 0
25 26 0
-25 -26 0
73 74 0
-73 -74 0
121 122 0
-121 -122 0
169 170 0
-169 -170 0
217 218 0
-217 -218 0
265 266 0
-265 -266 0
313 314 0
-313 -314 0
361 362 0
-361 -362 0
409 410 0
-409 -410 0
27 28 0
-27 -28 0
75 76 0
-75 -76 0
123 124 0
-123 -124 0
171 172 0
-171 -172 0
219 220 0
-219 -220 0
267 268 0
-267 -268 0
315 316 0
-315 -316 0
363 364 0
-363 -364 0
411 412 0
-411 -412 0
29 30 0
-29 -30 0
77 78 0
-77 -78 0
125 126 0
-125 -126 0
173 174 0
-173 -174 0
221 222 0
-221 -222 0
269 270 0
-269 -270 0
317 318 0
-317 -318 0
365 366 0
-365 -366 0
413 414 0
-413 -414 0
31 32 0
-31 -32 0
79 80 0
-79 -80 0
127 128 0
-127 -128 0
175 176 0
-175 -176 0
223 224 0
-223 -224 0
271 272 0
-271 -272 0
319 320 0
-319 -320 0
367 368 0
-367 -368 0
415 416 0
-415 -416 0
33 34 0
-33 -34 0
81 82 0
-81 -82 0
129 130 0
-129 -130 0
177 178 0
-177 -178 0
225 226 0
-225 -226 0
273 274 0
-273 -274 0
321 322 0
-321 -322 0
369 370 0
-369 -370 0
417 418 0
-417 -418 0
35 36 0
-35 -36 0
83 84 0
-83 -84 0
131 132 0
-131 -132 0
179 180 0
-179 -180 0
227 228 0
-227 -228 0
275 276 0
-275 -276 0
323 324 0
-323 -324 0
371 372 0
-371 -372 0
419 420 0
-419 -420 0
37 38 0
-37 -38 0
85 86 0
-85 -86 0
133 134 0
-133 -134 0
181 182 0
-181 -182 0
229 230 0
-229 -230 0
277 278 0
-277 -278 0
325 326 0
-325 -326 0
373 374 0
-373 -374 0
421 422 0
-421 -422 0
39 40 0
-39 -40 0
87 88 0
-87 -88 0
135 136 0
-135 -136 0
183 184 0
-183 -184 0
231 232 0
-231 -232 0
279 280 0
-279 -280 0
327 328 0
-327 -328 0
375 376 0
-375 -376 0
423 424 0
-423 -424 0
41 42 0
-41 -42 0
89 90 0
-89 -90 0
137 138 0
-137 -138 0
185 186 0
-185 -186 0
233 234 0
-233 -234 0
281 282 0
-281 -282 0
329 330 0
-329 -330 0
377 378 0
-377 -378 0
425 426 0
-425 -426 0
43 44 0
-43 -44 0
91 92 0
-91 -92 0
139 140 0
-139 -140 0
187 188 0
-187 -188 0
235 236 0
-235 -236 0
283 284 0
-283 -284 0
331 332 0
-331 -332 0
379 380 0
-379 -380 0
427 428 0
-427 -428 0
45 46 0
-45 -46 0
93 94 0
-93 -94 0
141 142 0
-141 -142 0
189 190 0
-189 -190 0
237 238 0
-237 -238 0
285 286 0
-285 -286 0
333 334 0
-333 -334 0
381 382 0
-381 -382 0
429 430 0
-429 -430 0
47 48 0
-47 -48 0
95 96 0
-95 -96 0
143 144 0
-143 -144 0
191 192 0
-191 -192 0
239 240 0
-239 -240 0
287 288 0
-287 -288 0
335 336 0
-335 -336 0
383 384 0
-383 -384 0
431 432 0
-431 -432 0
-1 -49 4 0
-1 -50 4 0
-2 -49 4 0
-2 -50 3 0
-49 -1 -97 52 0
-49 -2 -97 52 0
-49 -1 -98 52 0
-49 -2 -98 52 0
-50 -1 -97 52 0
-50 -2 -97 52 0
-50 -1 -98 52 0
-50 -2 -98 51 0
-97 -49 -145 100 0
-97 -50 -145 100 0
-97 -49 -146 100 0
-97 -50 -146 100 0
-98 -49 -145 100 0
-98 -50 -145 100 0
-98 -49 -146 100 0
-98 -50 -146 99 0
-145 -97 -193 148 0
-145 -98 -193 148 0
-145 -97 -194 148 0
-145 -98 -194 148 0
-146 -97 -193 148 0
-146 -98 -193 148 0
-146 -97 -194 148 0
-146 -98 -194 147 0
-193 -145 -241 196 0
-193 -146 -241 196 0
-193 -145 -242 196 0
-193 -146 -242 196 0
-194 -145 -241 196 0
-194 -146 -241 196 0
-194 -145 -242 196 0
-194 -146 -242 195 0
-241 -193 -289 244 0
-241 -194 -289 244 0
-241 -193 -290 244 0
-241 -194 -290 244 0
-242 -193 -289 244 0
-242 -194 -289 244 0
-242 -193 -290 244 0
-242 -194 -290 243 0
-289 -241 -337 292 0
-289 -242 -337 292 0
-289 -241 -338 292 0
-289 -242 -338 292 0
-290 -241 -337 292 0
-290 -242 -337 292 0
-290 -241 -338 292 0
-290 -242 -338 291 0
-337 -289 -385 340 0
-337 -290 -385 340 0
-337 -289 -386 340 0
-337 -290 -386 340 0
-338 -289 -385 340 0
-338 -290 -385 340 0
-338 -289 -386 340 0
-338 -290 -386 339 0
-385 -337 388 0
-385 -338 388 0
-386 -337 388 0
-386 -338 387 0
-3 -51 6 0
-3 -52 6 0
-4 -51 6 0
-4 -52 5 0
-51 -3 -99 54 0
-51 -4 -99 54 0
-51 -3 -100 54 0
-51 -4 -100 54 0
-52 -3 -99 54 0
-52 -4 -99 54 0
-52 -3 -100 54 0
-52 -4 -100 53 0
-99 -51 -147 102 0
-99 -52 -147 102 0
-99 -51 -148 102 0
-99 -52 -148 102 0
-100 -51 -147 102 0
-100 -52 -147 102 0
-100 -51 -148 102 0
-100 -52 -148 101 0
-147 -99 -195 150 0
-147 -100 -195 150 0
-147 -99 -196 150 0
-147 -100 -196 150 0
-148 -99 -195 150 0
-148 -100 -195 150 0
-148 -99 -196 150 0
-148 -100 -196 149 0
-195 -147 -243 198 0
-195 -148 -243 198 0
-195 -147 -244 198 0
-195 -148 -244 198 0
-196 -147 -243 198 0
-196 -148 -243 198 0
-196 -147 -244 198 0
-196 -148 -244 197 0
-243 -195 -291 246 0
-243 -196 -291 246 0
-243 -195 -292 246 0
-243 -196 -292 246 0
-244 -195 -291 246 0
-244 -196 -291 246 0
-244 -195 -292 246 0
-244 -196 -292 245 0
-291 -243 -339 294 0
-291 -244 -339 294 0
-291 -243 -340 294 0
-291 -244 -340 294 0
-292 -243 -339 294 0
-292 -244 -339 294 0
-292 -243 -340 294 0
-292 -244 -340 293 0
-339 -291 -387 342 0
-339 -292 -387 342 0
-339 -291 -388 342 0
-339 -292 -388 342 0
-340 -291 -387 342 0
-340 -292 -387 342 0
-340 -291 -388 342 0
-340 -292 -388 341 0
-387 -339 390 0
-387 -340 390 0
-388 -339 390 0
-388 -340 389 0
-5 -53 8 0
-5 -54 8 0
-6 -53 8 0
-6 -54 7 0
-53 -5 -101 56 0
-53 -6 -101 56 0
-53 -5 -102 56 0
-53 -6 -102 56 0
-54 -5 -101 56 0
-54 -6 -101 56 0
-54 -5 -102 56 0
-54 -6 -102 55 0
-101 -53 -149 104 0
-101 -54 -149 104 0
-101 -53 -150 104 0
-101 -54 -150 104 0
-102 -53 -149 104 0
-102 -54 -149 104 0
-102 -53 -150 104 0
-102 -54 -150 103 0
-149 -101 -197 152 0
-149 -102 -197 152 0
-149 -101 -198 152 0
-149 -102 -198 152 0
-150 -101 -197 152 0
-150 -102 -197 152 0
-150 -101 -198 152 0
-150 -102 -198 151 0
-197 -149 -245 200 0
-197 -150 -245 200 0
-197 -149 -246 200 0
-197 -150 -246 200 0
-198 -149 -245 200 0
-198 -150 -245 200 0
-198 -149 -246 200 0
-198 -150 -246 199 0
-245 -197 -293 248 0
-245 -198 -293 248 0
-245 -197 -294 248 0
-245 -198 -294 248 0
-246 -197 -293 248 0
-246 -198 -293 248 0
-246 -197 -294 248 0
-246 -198 -294 247 0
-293 -245 -341 296 0
-293 -246 -341 296 0
-293 -245 -342 296 0
-293 -246 -342 296 0
-294 -245 -341 296 0
-294 -246 -341 296 0
-294 -245 -342 296 0
-294 -246 -342 295 0
-341 -293 -389 344 0
-341 -294 -389 344 0
-341 -293 -390 344 0
-341 -294 -390 344 0
-342 -293 -389 344 0
-342 -294 -389 344 0
-342 -293 -390 344 0
-342 -294 -390 343 0
-389 -341 392 0
-389 -342 392 0
-390 -341 392 0
-390 -342 391 0
-7 -55 10 0
-7 -56 10 0
-8 -55 10 0
-8 -56 9 0
-55 -7 -103 58 0
-55 -8 -103 58 0
-55 -7 -104 58 0
-55 -8 -104 58 0
-56 -7 -103 58 0
-56 -8 -103 58 0
-56 -7 -104 58 0
-56 -8 -104 57 0
-103 -55 -151 106 0
-103 -56 -151 106 0
-103 -55 -152 106 0
-103 -56 -152 106 0
-104 -55 -151 106 0
-104 -56 -151 106 0
-104 -55 -152 106 0
-104 -56 -152 105 0
-151 -103 -199 154 0
-151 -104 -199 154 0
-151 -103 -200 154 0
-151 -104 -200 154 0
-152 -103 -199 154 0
-152 -104 -199 154 0
-152 -103 -200 154 0
-152 -104 -200 153 0
-199 -151 -247 202 0
-199 -152 -247 202 0
-199 -151 -248 202 0
-199 -152 -248 202 0
-200 -151 -247 202 0
-200 -152 -247 202 0
-200 -151 -248 202 0
-200 -152 -248 201 0
-247 -199 -295 250 0
-247 -200 -295 250 0
-247 -199 -296 250 0
-247 -200 -296 250 0
-248 -199 -295 250 0
-248 -200 -295 250 0
-248 -199 -296 250 0
-248 -200 -296 249 0
-295 -247 -343 298 0
-295 -248 -343 298 0
-295 -247 -344 298 0
-295 -248 -344 298 0
-296 -247 -343 298 0
-296 -248 -343 298 0
-296 -247 -344 298 0
-296 -248 -344 297 0
-343 -295 -391 346 0
-343 -296 -391 346 0
-343 -295 -392 346 0
-343 -296 -392 346 0
-344 -295 -391 346 0
-344 -296 -391 346 0
-344 -295 -392 346 0
-344 -296 -392 345 0
-391 -343 394 0
-391 -344 394 0
-392 -343 394 0
-392 -344 393 0
-9 -57 12 0
-9 -58 12 0
-10 -57 12 0
-10 -58 11 0
-57 -9 -105 60 0
-57 -10 -105 60 0
-57 -9 -106 60 0
-57 -10 -106 60 0
-58 -9 -105 60 0
-58 -10 -105 60 0
-58 -9 -106 60 0
-58 -10 -106 59 0
-105 -57 -153 108 0
-105 -58 -153 108 0
-105 -57 -154 108 0
-105 -58 -154 108 0
-106 -57 -153 108 0
-106 -58 -153 108 0
-106 -57 -154 108 0
-106 -58 -154 107 0
-153 -105 -201 156 0
-153 -106 -201 156 0
-153 -105 -202 156 0
-153 -106 -202 156 0
-154 -105 -201 156 0
-154 -106 -201 156 0
-154 -105 -202 156 0
-154 -106 -202 155 0
-201 -153 -249 204 0
-201 -154 -249 204 0
-201 -153 -250 204 0
-201 -154 -250 204 0
-202 -153 -249 204 0
-202 -154 -249 204 0
-202 -153 -250 204 0
-202 -154 -250 203 0
-249 -201 -297 252 0
-249 -202 -297 252 0
-249 -201 -298 252 0
-249 -202 -298 252 0
-250 -201 -297 252 0
-250 -202 -297 252 0
-250 -201 -298 252 0
-250 -202 -298 251 0
-297 -249 -345 300 0
-297 -250 -345 300 0
-297 -249 -346 300 0
-297 -250 -346 300 0
-298 -249 -345 300 0
-298 -250 -345 300 0
-298 -249 -346 300 0
-298 -250 -346 299 0
-345 -297 -393 348 0
-345 -298 -393 348 0
-345 -297 -394 348 0
-345 -298 -394 348 0
-346 -297 -393 348 0
-346 -298 -393 348 0
-346 -297 -394 348 0
-346 -298 -394 347 0
-393 -345 396 0
-393 -346 396 0
-394 -345 396 0
-394 -346 395 0
-11 -59 14 0
-11 -60 14 0
-12 -59 14 0
-12 -60 13 0
-59 -11 -107 62 0
-59 -12 -107 62 0
-59 -11 -108 62 0
-59 -12 -108 62 0
-60 -11 -107 62 0
-60 -12 -107 62 0
-60 -11 -108 62 0
-60 -12 -108 61 0
-107 -59 -155 110 0
-107 -60 -155 110 0
-107 -59 -156 110 0
-107 -60 -156 110 0
-108 -59 -155 110 0
-108 -60 -155 110 0
-108 -59 -156 110 0
-108 -60 -156 109 0
-155 -107 -203 158 0
-155 -108 -203 158 0
-155 -107 -204 158 0
-155 -108 -204 158 0
-156 -107 -203 158 0
-156 -108 -203 158 0
-156 -107 -204 158 0
-156 -108 -204 157 0
-203 -155 -251 206 0
-203 -156 -251 206 0
-203 -155 -252 206 0
-203 -156 -252 206 0
-204 -155 -251 206 0
-204 -156 -251 206 0
-204 -155 -252 206 0
-204 -156 -252 205 0
-251 -203 -299 254 0
-251 -204 -299 254 0
-251 -203 -300 254 0
-251 -204 -300 254 0
-252 -203 -299 254 0
-252 -204 -299 254 0
-252 -203 -300 254 0
-252 -204 -300 253 0
-299 -251 -347 302 0
-299 -252 -347 302 0
-299 -251 -348 302 0
-299 -252 -348 302 0
-300 -251 -347 302 0
-300 -252 -347 302 0
-300 -251 -348 302 0
-300 -252 -348 301 0
-347 -299 -395 350 0
-347 -300 -395 350 0
-347 -299 -396 350 0
-347 -300 -396 350 0
-348 -299 -395 350 0
-348 -300 -395 350 0
-348 -299 -396 350 0
-348 -300 -396 349 0
-395 -347 398 0
-395 -348 398 0
-396 -347 398 0
-396 -348 397 0
-13 -61 16 0
-13 -62 16 0
-14 -61 16 0
-14 -62 15 0
-61 -13 -109 64 0
-61 -14 -109 64 0
-61 -13 -110 64 0
-61 -14 -110 64 0
-62 -13 -109 64 0
-62 -14 -109 64 0
-62 -13 -110 64 0
-62 -14 -110 63 0
-109 -61 -157 112 0
-109 -62 -157 112 0
-109 -61 -158 112 0
-109 -62 -158 112 0
-110 -61 -157 112 0
-110 -62 -157 112 0
-110 -61 -158 112 0
-110 -62 -158 111 0
-157 -109 -205 160 0
-157 -110 -205 160 0
-157 -109 -206 160 0
-157 -110 -206 160 0
-158 -109 -205 160 0
-158 -110 -205 160 0
-158 -109 -206 160 0
-158 -110 -206 159 0
-205 -157 -253 208 0
-205 -158 -253 208 0
-205 -157 -254 208 0
-205 -158 -254 208 0
-206 -157 -253 208 0
-206 -158 -253 208 0
-206 -157 -254 208 0
-206 -158 -254 207 0
-253 -205 -301 256 0
-253 -206 -301 256 0
-253 -205 -302 256 0
-253 -206 -302 256 0
-254 -205 -301 256 0
-254 -206 -301 256 0
-254 -205 -302 256 0
-254 -206 -302 255 0
-301 -253 -349 304 0
-301 -254 -349 304 0
-301 -253 -350 304 0
-301 -254 -350 304 0
-302 -253 -349 304 0
-302 -254 -349 304 0
-302 -253 -350 304 0
-302 -254 -350 303 0
-349 -301 -397 352 0
-349 -302 -397 352 0
-349 -301 -398 352 0
-349 -302 -398 352 0
-350 -301 -397 352 0
-350 -302 -397 352 0
-350 -301 -398 352 0
-350 -302 -398 351 0
-397 -349 400 0
-397 -350 400 0
-398 -349 400 0
-398 -350 399 0
-15 -63 18 0
-15 -64 18 0
-16 -63 18 0
-16 -64 17 0
-63 -15 -111 66 0
-63 -16 -111 66 0
-63 -15 -112 66 0
-63 -16 -112 66 0
-64 -15 -111 66 0
-64 -16 -111 66 0
-64 -15 -112 66 0
-64 -16 -112 65 0
-111 -63 -159 114 0
-111 -64 -159 114 0
-111 -63 -160 114 0
-111 -64 -160 114 0
-112 -63 -159 114 0
-112 -64 -159 114 0
-112 -63 -160 114 0
-112 -64 -160 113 0
-159 -111 -207 162 0
-159 -112 -207 162 0
-159 -111 -208 162 0
-159 -112 -208 162 0
-160 -111 -207 162 0
-160 -112 -207 162 0
-160 -111 -208 162 0
-160 -112 -208 161 0
-207 -159 -255 210 0
-207 -160 -255 210 0
-207 -159 -256 210 0
-207 -160 -256 210 0
-208 -159 -255 210 0
-208 -160 -255 210 0
-208 -159 -256 210 0
-208 -160 -256 209 0
-255 -207 -303 258 0
-255 -208 -303 258 0
-255 -207 -304 258 0
-255 -208 -304 258 0
-256 -207 -303 258 0
-256 -208 -303 258 0
-256 -207 -304 258 0
-256 -208 -304 257 0
-303 -255 -351 306 0
-303 -256 -351 306 0
-303 -255 -352 306 0
-303 -256 -352 306 0
-304 -255 -351 306 0
-304 -256 -351 306 0
-304 -255 -352 306 0
-304 -256 -352 305 0
-351 -303 -399 354 0
-351 -304 -399 354 0
-351 -303 -400 354 0
-351 -304 -400 354 0
-352 -303 -399 354 0
-352 -304 -399 354 0
-352 -303 -400 354 0
-352 -304 -400 353 0
-399 -351 402 0
-399 -352 402 0
-400 -351 402 0
-400 -352 401 0
-17 -65 20 0
-17 -66 20 0
-18 -65 20 0
-18 -66 19 0
-65 -17 -113 68 0
-65 -18 -113 68 0
-65 -17 -114 68 0
-65 -18 -114 68 0
-66 -17 -113 68 0
-66 -18 -113 68 0
-66 -17 -114 68 0
-66 -18 -114 67 0
-113 -65 -161 116 0
-113 -66 -161 116 0
-113 -65 -162 116 0
-113 -66 -162 116 0
-114 -65 -161 116 0
-114 -66 -161 116 0
-114 -65 -162 116 0
-114 -66 -162 115 0
-161 -113 -209 164 0
-161 -114 -209 164 0
-161 -113 -210 164 0
-161 -114 -210 164 0
-162 -113 -209 164 0
-162 -114 -209 164 0
-162 -113 -210 164 0
-162 -114 -210 163 0
-209 -161 -257 212 0
-209 -162 -257 212 0
-209 -161 -258 212 0
-209 -162 -258 212 0
-210 -161 -257 212 0
-210 -162 -257 212 0
-210 -161 -258 212 0
-210 -162 -258 211 0
-257 -209 -305 260 0
-257 -210 -305 260 0
-257 -209 -306 260 0
-257 -210 -306 260 0
-258 -209 -305 260 0
-258 -210 -305 260 0
-258 -209 -306 260 0
-258 -210 -306 259 0
-305 -257 -353 308 0
-305 -258 -353 308 0
-305 -257 -354 308 0
-305 -258 -354 308 0
-306 -257 -353 308 0
-306 -258 -353 308 0
-306 -257 -354 308 0
-306 -258 -354 307 0
-353 -305 -401 356 0
-353 -306 -401 356 0
-353 -305 -402 356 0
-353 -306 -402 356 0
-354 -305 -401 356 0
-354 -306 -401 356 0
-354 -305 -402 356 0
-354 -306 -402 355 0
-401 -353 404 0
-401 -354 404 0
-402 -353 404 0
-402 -354 403 0
-19 -67 22 0
-19 -68 22 0
-20 -67 22 0
-20 -68 21 0
-67 -19 -115 70 0
-67 -20 -115 70 0
-67 -19 -116 70 0
-67 -20 -116 70 0
-68 -19 -115 70 0
-68 -20 -115 70 0
-68 -19 -116 70 0
-68 -20 -116 69 0
-115 -67 -163 118 0
-115 -68 -163 118 0
-115 -67 -164 118 0
-115 -68 -164 118 0
-116 -67 -163 118 0
-116 -68 -163 118 0
-116 -67 -164 118 0
-116 -68 -164 117 0
-163 -115 -211 166 0
-163 -116 -211 166 0
-163 -115 -212 166 0
-163 -116 -212 166 0
-164 -115 -211 166 0
-164 -116 -211 166 0
-164 -115 -212 166 0
-164 -116 -212 165 0
-211 -163 -259 214 0
-211 -164 -259 214 0
-211 -163 -260 214 0
-211 -164 -260 214 0
-212 -163 -259 214 0
-212 -164 -259 214 0
-212 -163 -260 214 0
-212 -164 -260 213 0
-259 -211 -307 262 0
-259 -212 -307 262 0
-259 -211 -308 262 0
-259 -212 -308 262 0
-260 -211 -307 262 0
-260 -212 -307 262 0
-260 -211 -308 262 0
-260 -212 -308 261 0
-307 -259 -355 310 0
-307 -260 -355 310 0
-307 -259 -356 310 0
-307 -260 -356 310 0
-308 -259 -355 310 0
-308 -260 -355 310 0
-308 -259 -356 310 0
-308 -260 -356 309 0
-355 -307 -403 358 0
-355 -308 -403 358 0
-355 -307 -404 358 0
-355 -308 -404 358 0
-356 -307 -403 358 0
-356 -308 -403 358 0
-356 -307 -404 358 0
-356 -308 -404 357 0
-403 -355 406 0
-403 -356 406 0
-404 -355 406 0
-404 -356 405 0
-21 -69 24 0
-21 -70 24 0
-22 -69 24 0
-22 -70 23 0
-69 -21 -117 72 0
-69 -22 -117 72 0
-69 -21 -118 72 0
-69 -22 -118 72 0
-70 -21 -117 72 0
-70 -22 -117 72 0
-70 -21 -118 72 0
-70 -22 -118 71 0
-117 -69 -165 120 0
-117 -70 -165 120 0
-117 -69 -166 120 0
-117 -70 -166 120 0
-118 -69 -165 120 0
-118 -70 -165 120 0
-118 -69 -166 120 0
-118 -70 -166 119 0
-165 -117 -213 168 0
-165 -118 -213 168 0
-165 -117 -214 168 0
-165 -118 -214 168 0
-166 -117 -213 168 0
-166 -118 -213 168 0
-166 -117 -214 168 0
-166 -118 -214 167 0
-213 -165 -261 216 0
-213 -166 -261 216 0
-213 -165 -262 216 0
-213 -166 -262 216 0
-214 -165 -261 216 0
-214 -166 -261 216 0
-214 -165 -262 216 0
-214 -166 -262 215 0
-261 -213 -309 264 0
-261 -214 -309 264 0
-261 -213 -310 264 0
-261 -214 -310 264 0
-262 -213 -309 264 0
-262 -214 -309 264 0
-262 -213 -310 264 0
-262 -214 -310 263 0
-309 -261 -357 312 0
-309 -262 -357 312 0
-309 -261 -358 312 0
-309 -262 -358 312 0
-310 -261 -357 312 0
-310 -262 -357 312 0
-310 -261 -358 312 0
-310 -262 -358 311 0
-357 -309 -405 360 0
-357 -310 -405 360 0
-357 -309 -406 360 0
-357 -310 -406 360 0
-358 -309 -405 360 0
-358 -310 -405 360 0
-358 -309 -406 360 0
-358 -310 -406 359 0
-405 -357 408 0
-405 -358 408 0
-406 -357 408 0
-406 -358 407 0
-23 -71 26 0
-23 -72 26 0
-24 -71 26 0
-24 -72 25 0
-71 -23 -119 74 0
-71 -24 -119 74 0
-71 -23 -120 74 0
-71 -24 -120 74 0
-72 -23 -119 74 0
-72 -24 -119 74 0
-72 -23 -120 74 0
-72 -24 -120 73 0
-119 -71 -167 122 0
-119 -72 -167 122 0
-119 -71 -168 122 0
-119 -72 -168 122 0
-120 -71 -167 122 0
-120 -72 -167 122 0
-120 -71 -168 122 0
-120 -72 -168 121 0
-167 -119 -215 170 0
-167 -120 -215 170 0
-167 -119 -216 170 0
-167 -120 -216 170 0
-168 -119 -215 170 0
-168 -120 -215 170 0
-168 -119 -216 170 0
-168 -120 -216 169 0
-215 -167 -263 218 0
-215 -168 -263 218 0
-215 -167 -264 218 0
-215 -168 -264 218 0
-216 -167 -263 218 0
-216 -168 -263 218 0
-216 -167 -264 218 0
-216 -168 -264 217 0
-263 -215 -311 266 0
-263 -216 -311 266 0
-263 -215 -312 266 0
-263 -216 -312 266 0
-264 -215 -311 266 0
-264 -216 -311 266 0
-264 -215 -312 266 0
-264 -216 -312 265 0
-311 -263 -359 314 0
-311 -264 -359 314 0
-311 -263 -360 314 0
-311 -264 -360 314 0
-312 -263 -359 314 0
-312 -264 -359 314 0
-312 -263 -360 314 0
-312 -264 -360 313 0
-359 -311 -407 362 0
-359 -312 -407 362 0
-359 -311 -408 362 0
-359 -312 -408 362 0
-360 -311 -407 362 0
-360 -312 -407 362 0
-360 -311 -408 362 0
-360 -312 -408 361 0
-407 -359 410 0
-407 -360 410 0
-408 -359 410 0
-408 -360 409 0
-25 -73 28 0
-25 -74 28 0
-26 -73 28 0
-26 -74 27 0
-73 -25 -121 76 0
-73 -26 -121 76 0
-73 -25 -122 76 0
-73 -26 -122 76 0
-74 -25 -121 76 0
-74 -26 -121 76 0
-74 -25 -122 76 0
-74 -26 -122 75 0
-121 -73 -169 124 0
-121 -74 -169 124 0
-121 -73 -170 124 0
-121 -74 -170 124 0
-122 -73 -169 124 0
-122 -74 -169 124 0
-122 -73 -170 124 0
-122 -74 -170 123 0
-169 -121 -217 172 0
-169 -122 -217 172 0
-169 -121 -218 172 0
-169 -122 -218 172 0
-170 -121 -217 172 0
-170 -122 -217 172 0
-170 -121 -218 172 0
-170 -122 -218 171 0
-217 -169 -265 220 0
-217 -170 -265 220 0
-217 -169 -266 220 0
-217 -170 -266 220 0
-218 -169 -265 220 0
-218 -170 -265 220 0
-218 -169 -266 220 0
-218 -170 -266 219 0
-265 -217 -313 268 0
-265 -218 -313 268 0
-265 -217 -314 268 0
-265 -218 -314 268 0
-266 -217 -313 268 0
-266 -218 -313 268 0
-266 -217 -314 268 0
-266 -218 -314 267 0
-313 -265 -361 316 0
-313 -266 -361 316 0
-313 -265 -362 316 0
-313 -266 -362 316 0
-314 -265 -361 316 0
-314 -266 -361 316 0
-314 -265 -362 316 0
-314 -266 -362 315 0
-361 -313 -409 364 0
-361 -314 -409 364 0
-361 -313 -410 364 0
-361 -314 -410 364 0
-362 -313 -409 364 0
-362 -314 -409 364 0
-362 -313 -410 364 0
-362 -314 -410 363 0
-409 -361 412 0
-409 -362 412 0
-410 -361 412 0
-410 -362 411 0
-27 -75 30 0
-27 -76 30 0
-28 -75 30 0
-28 -76 29 0
-75 -27 -123 78 0
-75 -28 -123 78 0
-75 -27 -124 78 0
-75 -28 -124 78 0
-76 -27 -123 78 0
-76 -28 -123 78 0
-76 -27 -124 78 0
-76 -28 -124 77 0
-123 -75 -171 126 0
-123 -76 -171 126 0
-123 -75 -172 126 0
-123 -76 -172 126 0
-124 -75 -171 126 0
-124 -76 -171 126 0
-124 -75 -172 126 0
-124 -76 -172 125 0
-171 -123 -219 174 0
-171 -124 -219 174 0
-171 -123 -220 174 0
-171 -124 -220 174 0
-172 -123 -219 174 0
-172 -124 -219 174 0
-172 -123 -220 174 0
-172 -124 -220 173 0
-219 -171 -267 222 0
-219 -172 -267 222 0
-219 -171 -268 222 0
-219 -172 -268 222 0
-220 -171 -267 222 0
-220 -172 -267 222 0
-220 -171 -268 222 0
-220 -172 -268 221 0
-267 -219 -315 270 0
-267 -220 -315 270 0
-267 -219 -316 270 0
-267 -220 -316 270 0
-268 -219 -315 270 0
-268 -220 -315 270 0
-268 -219 -316 270 0
-268 -220 -316 269 0
-315 -267 -363 318 0
-315 -268 -363 318 0
-315 -267 -364 318 0
-315 -268 -364 318 0
-316 -267 -363 318 0
-316 -268 -363 318 0
-316 -267 -364 318 0
-316 -268 -364 317 0
-363 -315 -411 366 0
-363 -316 -411 366 0
-363 -315 -412 366 0
-363 -316 -412 366 0
-364 -315 -411 366 0
-364 -316 -411 366 0
-364 -315 -412 366 0
-364 -316 -412 365 0
-411 -363 414 0
-411 -364 414 0
-412 -363 414 0
-412 -364 413 0
-29 -77 32 0
-29 -78 32 0
-30 -77 32 0
-30 -78 31 0
-77 -29 -125 80 0
-77 -30 -125 80 0
-77 -29 -126 80 0
-77 -30 -126 80 0
-78 -29 -125 80 0
-78 -30 -125 80 0
-78 -29 -126 80 0
-78 -30 -126 79 0
-125 -77 -173 128 0
-125 -78 -173 128 0
-125 -77 -174 128 0
-125 -78 -174 128 0
-126 -77 -173 128 0
-126 -78 -173 128 0
-126 -77 -174 128 0
-126 -78 -174 127 0
-173 -125 -221 176 0
-173 -126 -221 176 0
-173 -125 -222 176 0
-173 -126 -222 176 0
-174 -125 -221 176 0
-174 -126 -221 176 0
-174 -125 -222 176 0
-174 -126 -222 175 0
-221 -173 -269 224 0
-221 -174 -269 224 0
-221 -173 -270 224 0
-221 -174 -270 224 0
-222 -173 -269 224 0
-222 -174 -269 224 0
-222 -173 -270 224 0
-222 -174 -270 223 0
-269 -221 -317 272 0
-269 -222 -317 272 0
-269 -221 -318 272 0
-269 -222 -318 272 0
-270 -221 -317 272 0
-270 -222 -317 272 0
-270 -221 -318 272 0
-270 -222 -318 271 0
-317 -269 -365 320 0
-317 -270 -365 320 0
-317 -269 -366 320 0
-317 -270 -366 320 0
-318 -269 -365 320 0
-318 -270 -365 320 0
-318 -269 -366 320 0
-318 -270 -366 319 0
-365 -317 -413 368 0
-365 -318 -413 368 0
-365 -317 -414 368 0
-365 -318 -414 368 0
-366 -317 -413 368 0
-366 -318 -413 368 0
-366 -317 -414 368 0
-366 -318 -414 367 0
-413 -365 416 0
-413 -366 416 0
-414 -365 416 0
-414 -366 415 0
-31 -79 34 0
-31 -80 34 0
-32 -79 34 0
-32 -80 33 0
-79 -31 -127 82 0
-79 -32 -127 82 0
-79 -31 -128 82 0
-79 -32 -128 82 0
-80 -31 -127 82 0
-80 -32 -127 82 0
-80 -31 -128 82 0
-80 -32 -128 81 0
-127 -79 -175 130 0
-127 -80 -175 130 0
-127 -79 -176 130 0
-127 -80 -176 130 0
-128 -79 -175 130 0
-128 -80 -175 130 0
-128 -79 -176 130 0
-128 -80 -176 129 0
-175 -127 -223 178 0
-175 -128 -223 178 0
-175 -127 -224 178 0
-175 -128 -224 178 0
-176 -127 -223 178 0
-176 -128 -223 178 0
-176 -127 -224 178 0
-176 -128 -224 177 0
-223 -175 -271 226 0
-223 -176 -271 226 0
-223 -175 -272 226 0
-223 -176 -272 226 0
-224 -175 -271 226 0
-224 -176 -271 226 0
-224 -175 -272 226 0
-224 -176 -272 225 0
-271 -223 -319 274 0
-271 -224 -319 274 0
-271 -223 -320 274 0
-271 -224 -320 274 0
-272 -223 -319 274 0
-272 -224 -319 274 0
-272 -223 -320 274 0
-272 -224 -320 273 0
-319 -271 -367 322 0
-319 -272 -367 322 0
-319 -271 -368 322 0
-319 -272 -368 322 0
-320 -271 -367 322 0
-320 -272 -367 322 0
-320 -271 -368 322 0
-320 -272 -368 321 0
-367 -319 -415 370 0
-367 -320 -415 370 0
-367 -319 -416 370 0
-367 -320 -416 370 0
-368 -319 -415 370 0
-368 -320 -415 370 0
-368 -319 -416 370 0
-368 -320 -416 369 0
-415 -367 418 0
-415 -368 418 0
-416 -367 418 0
-416 -368 417 0
-33 -81 36 0
-33 -82 36 0
-34 -81 36 0
-34 -82 35 0
-81 -33 -129 84 0
-81 -34 -129 84 0
-81 -33 -130 84 0
-81 -34 -130 84 0
-82 -33 -129 84 0
-82 -34 -129 84 0
-82 -33 -130 84 0
-82 -34 -130 83 0
-129 -81 -177 132 0
-129 -82 -177 132 0
-129 -81 -178 132 0
-129 -82 -178 132 0
-130 -81 -177 132 0
-130 -82 -177 132 0
-130 -81 -178 132 0
-130 -82 -178 131 0
-177 -129 -225 180 0
-177 -130 -225 180 0
-177 -129 -226 180 0
-177 -130 -226 180 0
-178 -129 -225 180 0
-178 -130 -225 180 0
-178 -129 -226 180 0
-178 -130 -226 179 0
-225 -177 -273 228 0
-225 -178 -273 228 0
-225 -177 -274 228 0
-225 -178 -274 228 0
-226 -177 -273 228 0
-226 -178 -273 228 0
-226 -177 -274 228 0
-226 -178 -274 227 0
-273 -225 -321 276 0
-273 -226 -321 276 0
-273 -225 -322 276 0
-273 -226 -322 276 0
-274 -225 -321 276 0
-274 -226 -321 276 0
-274 -225 -322 276 0
-274 -226 -322 275 0
-321 -273 -369 324 0
-321 -274 -369 324 0
-321 -273 -370 324 0
-321 -274 -370 324 0
-322 -273 -369 324 0
-322 -274 -369 324 0
-322 -273 -370 324 0
-322 -274 -370 323 0
-369 -321 -417 372 0
-369 -322 -417 372 0
-369 -321 -418 372 0
-369 -322 -418 372 0
-370 -321 -417 372 0
-370 -322 -417 372 0
-370 -321 -418 372 0
-370 -322 -418 371 0
-417 -369 420 0
-417 -370 420 0
-418 -369 420 0
-418 -370 419 0
-35 -83 38 0
-35 -84 38 0
-36 -83 38 0
-36 -84 37 0
-83 -35 -131 86 0
-83 -36 -131 86 0
-83 -35 -132 86 0
-83 -36 -132 86 0
-84 -35 -131 86 0
-84 -36 -131 86 0
-84 -35 -132 86 0
-84 -36 -132 85 0
-131 -83 -179 134 0
-131 -84 -179 134 0
-131 -83 -180 134 0
-131 -84 -180 134 0
-132 -83 -179 134 0
-132 -84 -179 134 0
-132 -83 -180 134 0
-132 -84 -180 133 0
-179 -131 -227 182 0
-179 -132 -227 182 0
-179 -131 -228 182 0
-179 -132 -228 182 0
-180 -131 -227 182 0
-180 -132 -227 182 0
-180 -131 -228 182 0
-180 -132 -228 181 0
-227 -179 -275 230 0
-227 -180 -275 230 0
-227 -179 -276 230 0
-227 -180 -276 230 0
-228 -179 -275 230 0
-228 -180 -275 230 0
-228 -179 -276 230 0
-228 -180 -276 229 0
-275 -227 -323 278 0
-275 -228 -323 278 0
-275 -227 -324 278 0
-275 -228 -324 278 0
-276 -227 -323 278 0
-276 -228 -323 278 0
-276 -227 -324 278 0
-276 -228 -324 277 0
-323 -275 -371 326 0
-323 -276 -371 326 0
-323 -275 -372 326 0
-323 -276 -372 326 0
-324 -275 -371 326 0
-324 -276 -371 326 0
-324 -275 -372 326 0
-324 -276 -372 325 0
-371 -323 -419 374 0
-371 -324 -419 374 0
-371 -323 -420 374 0
-371 -324 -420 374 0
-372 -323 -419 374 0
-372 -324 -419 374 0
-372 -323 -420 374 0
-372 -324 -420 373 0
-419 -371 422 0
-419 -372 422 0
-420 -371 422 0
-420 -372 421 0
-37 -85 40 0
-37 -86 40 0
-38 -85 40 0
-38 -86 39 0
-85 -37 -133 88 0
-85 -38 -133 88 0
-85 -37 -134 88 0
-85 -38 -134 88 0
-86 -37 -133 88 0
-86 -38 -133 88 0
-86 -37 -134 88 0
-86 -38 -134 87 0
-133 -85 -181 136 0
-133 -86 -181 136 0
-133 -85 -182 136 0
-133 -86 -182 136 0
-134 -85 -181 136 0
-134 -86 -181 136 0
-134 -85 -182 136 0
-134 -86 -182 135 0
-181 -133 -229 184 0
-181 -134 -229 184 0
-181 -133 -230 184 0
-181 -134 -230 184 0
-182 -133 -229 184 0
-182 -134 -229 184 0
-182 -133 -230 184 0
-182 -134 -230 183 0
-229 -181 -277 232 0
-229 -182 -277 232 0
-229 -181 -278 232 0
-229 -182 -278 232 0
-230 -181 -277 232 0
-230 -182 -277 232 0
-230 -181 -278 232 0
-230 -182 -278 231 0
-277 -229 -325 280 0
-277 -230 -325 280 0
-277 -229 -326 280 0
-277 -230 -326 280 0
-278 -229 -325 280 0
-278 -230 -325 280 0
-278 -229 -326 280 0
-278 -230 -326 279 0
-325 -277 -373 328 0
-325 -278 -373 328 0
-325 -277 -374 328 0
-325 -278 -374 328 0
-326 -277 -373 328 0
-326 -278 -373 328 0
-326 -277 -374 328 0
-326 -278 -374 327 0
-373 -325 -421 376 0
-373 -326 -421 376 0
-373 -325 -422 376 0
-373 -326 -422 376 0
-374 -325 -421 376 0
-374 -326 -421 376 0
-374 -325 -422 376 0
-374 -326 -422 375 0
-421 -373 424 0
-421 -374 424 0
-422 -373 424 0
-422 -374 423 0
-39 -87 42 0
-39 -88 42 0
-40 -87 42 0
-40 -88 41 0
-87 -39 -135 90 0
-87 -40 -135 90 0
-87 -39 -136 90 0
-87 -40 -136 90 0
-88 -39 -135 90 0
-88 -40 -135 90 0
-88 -39 -136 90 0
-88 -40 -136 89 0
-135 -87 -183 138 0
-135 -88 -183 138 0
-135 -87 -184 138 0
-135 -88 -184 138 0
-136 -87 -183 138 0
-136 -88 -183 138 0
-136 -87 -184 138 0
-136 -88 -184 137 0
-183 -135 -231 186 0
-183 -136 -231 186 0
-183 -135 -232 186 0
-183 -136 -232 186 0
-184 -135 -231 186 0
-184 -136 -231 186 0
-184 -135 -232 186 0
-184 -136 -232 185 0
-231 -183 -279 234 0
-231 -184 -279 234 0
-231 -183 -280 234 0
-231 -184 -280 234 0
-232 -183 -279 234 0
-232 -184 -279 234 0
-232 -183 -280 234 0
-232 -184 -280 233 0
-279 -231 -327 282 0
-279 -232 -327 282 0
-279 -231 -328 282 0
-279 -232 -328 282 0
-280 -231 -327 282 0
-280 -232 -327 282 0
-280 -231 -328 282 0
-280 -232 -328 281 0
-327 -279 -375 330 0
-327 -280 -375 330 0
-327 -279 -376 330 0
-327 -280 -376 330 0
-328 -279 -375 330 0
-328 -280 -375 330 0
-328 -279 -376 330 0
-328 -280 -376 329 0
-375 -327 -423 378 0
-375 -328 -423 378 0
-375 -327 -424 378 0
-375 -328 -424 378 0
-376 -327 -423 378 0
-376 -328 -423 378 0
-376 -327 -424 378 0
-376 -328 -424 377 0
-423 -375 426 0
-423 -376 426 0
-424 -375 426 0
-424 -376 425 0
-41 -89 44 0
-41 -90 44 0
-42 -89 44 0
-42 -90 43 0
-89 -41 -137 92 0
-89 -42 -137 92 0
-89 -41 -138 92 0
-89 -42 -138 92 0
-90 -41 -137 92 0
-90 -42 -137 92 0
-90 -41 -138 92 0
-90 -42 -138 91 0
-137 -89 -185 140 0
-137 -90 -185 140 0
-137 -89 -186 140 0
-137 -90 -186 140 0
-138 -89 -185 140 0
-138 -90 -185 140 0
-138 -89 -186 140 0
-138 -90 -186 139 0
-185 -137 -233 188 0
-185 -138 -233 188 0
-185 -137 -234 188 0
-185 -138 -234 188 0
-186 -137 -233 188 0
-186 -138 -233 188 0
-186 -137 -234 188 0
-186 -138 -234 187 0
-233 -185 -281 236 0
-233 -186 -281 236 0
-233 -185 -282 236 0
-233 -186 -282 236 0
-234 -185 -281 236 0
-234 -186 -281 236 0
-234 -185 -282 236 0
-234 -186 -282 235 0
-281 -233 -329 284 0
-281 -234 -329 284 0
-281 -233 -330 284 0
-281 -234 -330 284 0
-282 -233 -329 284 0
-282 -234 -329 284 0
-282 -233 -330 284 0
-282 -234 -330 283 0
-329 -281 -377 332 0
-329 -282 -377 332 0
-329 -281 -378 332 0
-329 -282 -378 332 0
-330 -281 -377 332 0
-330 -282 -377 332 0
-330 -281 -378 332 0
-330 -282 -378 331 0
-377 -329 -425 380 0
-377 -330 -425 380 0
-377 -329 -426 380 0
-377 -330 -426 380 0
-378 -329 -425 380 0
-378 -330 -425 380 0
-378 -329 -426 380 0
-378 -330 -426 379 0
-425 -377 428 0
-425 -378 428 0
-426 -377 428 0
-426 -378 427 0
-43 -91 46 0
-43 -92 46 0
-44 -91 46 0
-44 -92 45 0
-91 -43 -139 94 0
-91 -44 -139 94 0
-91 -43 -140 94 0
-91 -44 -140 94 0
-92 -43 -139 94 0
-92 -44 -139 94 0
-92 -43 -140 94 0
-92 -44 -140 93 0
-139 -91 -187 142 0
-139 -92 -187 142 0
-139 -91 -188 142 0
-139 -92 -188 142 0
-140 -91 -187 142 0
-140 -92 -187 142 0
-140 -91 -188 142 0
-140 -92 -188 141 0
-187 -139 -235 190 0
-187 -140 -235 190 0
-187 -139 -236 190 0
-187 -140 -236 190 0
-188 -139 -235 190 0
-188 -140 -235 190 0
-188 -139 -236 190 0
-188 -140 -236 189 0
-235 -187 -283 238 0
-235 -188 -283 238 0
-235 -187 -284 238 0
-235 -188 -284 238 0
-236 -187 -283 238 0
-236 -188 -283 238 0
-236 -187 -284 238 0
-236 -188 -284 237 0
-283 -235 -331 286 0
-283 -236 -331 286 0
-283 -235 -332 286 0
-283 -236 -332 286 0
-284 -235 -331 286 0
-284 -236 -331 286 0
-284 -235 -332 286 0
-284 -236 -332 285 0
-331 -283 -379 334 0
-331 -284 -379 334 0
-331 -283 -380 334 0
-331 -284 -380 334 0
-332 -283 -379 334 0
-332 -284 -379 334 0
-332 -283 -380 334 0
-332 -284 -380 333 0
-379 -331 -427 382 0
-379 -332 -427 382 0
-379 -331 -428 382 0
-379 -332 -428 382 0
-380 -331 -427 382 0
-380 -332 -427 382 0
-380 -331 -428 382 0
-380 -332 -428 381 0
-427 -379 430 0
-427 -380 430 0
-428 -379 430 0
-428 -380 429 0
-45 -93 48 0
-45 -94 48 0
-46 -93 48 0
-46 -94 47 0
-93 -45 -141 96 0
-93 -46 -141 96 0
-93 -45 -142 96 0
-93 -46 -142 96 0
-94 -45 -141 96 0
-94 -46 -141 96 0
-94 -45 -142 96 0
-94 -46 -142 95 0
-141 -93 -189 144 0
-141 -94 -189 144 0
-141 -93 -190 144 0
-141 -94 -190 144 0
-142 -93 -189 144 0
-142 -94 -189 144 0
-142 -93 -190 144 0
-142 -94 -190 143 0
-189 -141 -237 192 0
-189 -142 -237 192 0
-189 -141 -238 192 0
-189 -142 -238 192 0
-190 -141 -237 192 0
-190 -142 -237 192 0
-190 -141 -238 192 0
-190 -142 -238 191 0
-237 -189 -285 240 0
-237 -190 -285 240 0
-237 -189 -286 240 0
-237 -190 -286 240 0
-238 -189 -285 240 0
-238 -190 -285 240 0
-238 -189 -286 240 0
-238 -190 -286 239 0
-285 -237 -333 288 0
-285 -238 -333 288 0
-285 -237 -334 288 0
-285 -238 -334 288 0
-286 -237 -333 288 0
-286 -238 -333 288 0
-286 -237 -334 288 0
-286 -238 -334 287 0
-333 -285 -381 336 0
-333 -286 -381 336 0
-333 -285 -382 336 0
-333 -286 -382 336 0
-334 -285 -381 336 0
-334 -286 -381 336 0
-334 -285 -382 336 0
-334 -286 -382 335 0
-381 -333 -429 384 0
-381 -334 -429 384 0
-381 -333 -430 384 0
-381 -334 -430 384 0
-382 -333 -429 384 0
-382 -334 -429 384 0
-382 -333 -430 384 0
-382 -334 -430 383 0
-429 -381 432 0
-429 -382 432 0
-430 -381 432 0
-430 -382 431 0
-47 -95 -143 -191 -239 -287 -335 -383 -431 0
-48 -96 -144 -192 -240 -288 -336 -384 -432 0
-1 -49 -97 -145 -193 -241 -289 -337 -385 0
-2 -50 -98 -146 -194 -242 -290 -338 -386 0
-3 -51 -99 -147 -195 -243 -291 -339 -387 0
-4 -52 -100 -148 -196 -244 -292 -340 -388 0
-7 -55 -103 -151 -199 -247 -295 -343 -391 0
-8 -56 -104 -152 -200 -248 -296 -344 -392 0
-11 -59 -107 -155 -203 -251 -299 -347 -395 0
-12 -60 -108 -156 -204 -252 -300 -348 -396 0
-15 -63 -111 -159 -207 -255 -303 -351 -399 0
-16 -64 -112 -160 -208 -256 -304 -352 -400 0
-19 -67 -115 -163 -211 -259 -307 -355 -403 0
-20 -68 -116 -164 -212 -260 -308 -356 -404 0
-23 -71 -119 -167 -215 -263 -311 -359 -407 0
-24 -72 -120 -168 -216 -264 -312 -360 -408 0
-27 -75 -123 -171 -219 -267 -315 -363 -411 0
-28 -76 -124 -172 -220 -268 -316 -364 -412 0
-31 -79 -127 -175 -223 -271 -319 -367 -415 0
-32 -80 -128 -176 -224 -272 -320 -368 -416 0
-35 -83 -131 -179 -227 -275 -323 -371 -419 0
-36 -84 -132 -180 -228 -276 -324 -372 -420 0
-39 -87 -135 -183 -231 -279 -327 -375 -423 0
-40 -88 -136 -184 -232 -280 -328 -376 -424 0
-43 -91 -139 -187 -235 -283 -331 -379 -427 0
-44 -92 -140 -188 -236 -284 -332 -380 -428 0
